c A SAT instance generated from a 3-CNF formula that had 70 clauses and 10 variables
p cnf 10 70
3 9 -2 0
5 4 3 0
8 3 1 0
-4 -2 -5 0
3 9 -2 0
4 5 9 0
-1 -8 4 0
-1 4 -8 0
1 -10 3 0
-5 4 10 0
8 1 9 0
6 -5 10 0
-3 -6 -9 0
-5 -1 -3 0
9 10 -1 0
9 -4 -5 0
6 1 -3 0
4 -7 -1 0
9 -2 7 0
-7 3 8 0
3 -8 -2 0
9 -4 3 0
-7 -6 -10 0
-9 2 -3 0
6 -5 9 0
7 5 9 0
-6 -9 -10 0
3 -6 -1 0
1 8 5 0
-8 9 4 0
2 6 -3 0
-5 -9 -7 0
2 3 4 0
10 7 -4 0
-9 -8 -1 0
4 10 -5 0
5 -6 8 0
8 -6 -7 0
-5 -7 -4 0
9 4 -5 0
6 1 -9 0
-3 7 4 0
8 -3 -7 0
-9 4 7 0
5 -1 9 0
4 -2 -7 0
-7 9 -10 0
-1 -3 -9 0
6 -5 3 0
-2 -6 -5 0
-2 -5 1 0
-10 -7 6 0
-3 5 9 0
1 -4 5 0
-2 -7 8 0
-8 4 1 0
-2 10 -1 0
-9 -5 -4 0
-3 4 9 0
-5 8 4 0
9 -4 7 0
8 -2 4 0
-3 8 7 0
3 -2 -1 0
-9 -4 -6 0
-3 8 10 0
4 -7 -2 0
6 10 1 0
-6 -7 -2 0
1 7 -4 0
%
0

72 59 43 60 57 40 12 49 31 39
